language Essence 1.3

letting n_warehouses be 3
letting n_stores be 2

letting opencost be function
(
  1 --> 30,
  2 --> 10,
  3 --> 40
)

letting capacity be function
(
  1 --> 20,
  2 --> 10,
  3 --> 10
)

letting cost be function
(
  (1,1) --> 10,
  (2,1) --> 5,
  (1,2) --> 7,
  (2,2) --> 3,
  (1,3) --> 8,
  (2,3) --> 9
)
 
